\* Problem: Unknown *\

Maximize
 obj: + xp_0_0 + xp_1_0 + xp_1_1 + xp_2_0 + xp_2_1 + xp_3_0 + xp_3_1
 + xp_4_0 + xp_4_1 + xp_5_0 + xp_6_0 + xp_7_0 + xp_8_0 + xp_9_0 + xp_9_1
 + xp_10_0 + xp_11_0 + xp_11_1 + xp_12_0 + xp_12_1 + xp_13_0 + xp_13_1
 + xp_13_2 + xp_14_0 + xp_14_1 + xp_15_0 + xp_16_0 + xp_17_0 + xp_17_1
 + xp_18_0 + xp_18_1 + xp_18_2 + xp_18_3 + xp_19_0 + xp_19_1 + xp_20_0
 + xp_21_0 + xp_22_0 + xp_22_1 + xp_23_0 + xp_24_0 + xp_24_1 + xp_24_2
 + xp_24_3 + xp_25_0 + xp_26_0 + xp_26_1 + xp_26_2 + xp_27_0 + xp_27_1
 + xp_28_0 + xp_28_1 + xp_29_0 + xp_30_0 + xp_30_1 + xp_30_2 + xp_31_0
 + xp_32_0 + xp_32_1 + xp_33_0 + xp_34_0 + xp_34_1 + xp_35_0 + xp_36_0
 + xp_37_0 + xp_38_0 + xp_38_1 + xp_39_0 + xp_40_0 + xp_40_1 + xp_40_2
 + xp_41_0 + xp_41_1 + xp_42_0 + xp_42_1 + xp_42_2 + xp_43_0 + xp_44_0
 + xp_45_0 + xp_45_1 + xp_45_2 + xp_46_0 + xp_47_0 + xp_48_0 + xp_48_1
 + xp_49_0 + xp_50_0 + xp_50_1 + xp_51_0 + xp_52_0 + xp_53_0 + xp_53_1
 + xp_54_0 + xp_55_0 + xp_56_0 + xp_57_0 + xp_57_1 + xp_58_0 + xp_58_1
 + xp_59_0 + xp_60_0 + xp_60_1 + xp_61_0 + xp_61_1 + xp_62_0 + xp_63_0
 + xp_63_1 + xp_64_0 + xp_65_0 + xp_65_1 + xp_66_0 + xp_67_0 + xp_67_1
 + xp_68_0 + xp_68_1 + xp_69_0 + xp_70_0 + xp_71_0 + xp_72_0 + xp_73_0
 + xp_74_0 + xp_75_0 + xp_76_0 + xp_77_0 + xp_77_1 + xp_77_2 + xp_78_0
 + xp_78_1 + xp_78_2 + xp_78_3 + xp_79_0 + xp_79_1 + xp_79_2 + xp_80_0
 + xp_80_1 + xp_81_0 + xp_81_1 + xp_81_2 + xp_81_3 + xp_82_0 + xp_82_1
 + xp_82_2 + xp_83_0 + xp_83_1 + xp_84_0 + xp_85_0 + xp_85_1 + xp_85_2
 + xp_85_3 + xp_86_0 + xp_86_1 + xp_87_0 + xp_88_0 + xp_88_1 + xp_89_0
 + xp_90_0 + xp_90_1 + xp_90_2 + xp_91_0 + xp_91_1 + xp_91_2 + xp_92_0
 + xp_92_1 + xp_93_0 + xp_94_0 + xp_94_1 + xp_94_2 + xp_95_0 + xp_95_1
 + xp_95_2 + xp_96_0 + xp_96_1 + xp_97_0 + xp_98_0 + xp_98_1 + xp_98_2
 + xp_99_0 + xp_99_1 + xp_99_2 + xp_100_0 + xp_101_0 + xp_102_0
 + xp_103_0 + xp_104_0 + xp_104_1 + xp_105_0 + xp_105_1 + xp_106_0
 + xp_106_1 + xp_107_0 + xp_108_0 + xp_108_1 + xp_108_2 + xp_109_0
 + xp_109_1 + xp_110_0 + xp_111_0 + xp_111_1 + xp_112_0 + xp_112_1
 + xp_113_0 + xp_114_0 + xp_115_0 + xp_115_1 + xp_116_0 + xp_116_1
 + xp_117_0 + xp_118_0 + xp_119_0 + xp_119_1 + xp_119_2 + xp_120_0
 + xp_120_1 + xp_121_0 + xp_122_0 + xp_123_0 + xp_123_1 + xp_124_0
 + xp_124_1 + xp_125_0 + xp_125_1 + xp_126_0 + xp_126_1 + xp_126_2
 + xp_127_0 + xp_127_1 + xp_128_0 + xp_128_1 + xp_128_2 + xp_129_0
 + xp_129_1 + xp_130_0 + xp_131_0 + xp_131_1 + xp_131_2

Subject To
 r_1: + xp_128_2 + xp_128_1 + xp_123_1 + xp_122_0 + xp_121_0 + xp_108_1
 + xp_107_0 + xp_78_3 + xp_67_1 + xp_57_1 + xp_40_2 + xp_40_1 + xp_25_0
 + xp_22_1 + xp_18_3 + xp_18_2 + xp_18_1 + xp_16_0 + xp_13_2 + xp_13_1
 + xp_4_1 + xp_4_0 <= 38762.5113739763
 r_2: + xp_131_2 + xp_131_0 + xp_127_0 + xp_126_1 + xp_120_1 + xp_120_0
 + xp_94_2 + xp_94_1 + xp_93_0 + xp_90_1 + xp_85_3 + xp_85_2 + xp_85_1
 + xp_85_0 + xp_77_2 + xp_77_1 + xp_75_0 + xp_71_0 + xp_66_0 + xp_65_1
 + xp_65_0 + xp_61_1 + xp_55_0 + xp_52_0 + xp_48_1 + xp_48_0 + xp_42_2
 + xp_42_1 + xp_38_1 + xp_32_0 + xp_28_1 + xp_28_0 + xp_24_3 + xp_24_1
 + xp_24_0 + xp_19_1 + xp_19_0 + xp_12_1 + xp_1_1 <= 34674.9747389694
 r_3: + xp_124_1 + xp_114_0 + xp_105_1 + xp_95_1 + xp_91_1 + xp_85_3
 + xp_83_1 + xp_79_1 + xp_76_0 + xp_58_1 + xp_48_1 + xp_41_1 + xp_34_0
 + xp_30_2 + xp_26_2 + xp_24_3 <= 36974.2913645353
 r_4: + xp_119_2 + xp_117_0 + xp_104_1 + xp_95_2 + xp_95_0 + xp_91_2
 + xp_91_0 + xp_88_1 + xp_84_0 + xp_82_2 + xp_81_3 + xp_79_2 + xp_79_0
 + xp_46_0 + xp_43_0 + xp_40_2 + xp_40_1 + xp_40_0 + xp_34_1 + xp_27_1
 + xp_18_3 <= 35484.0162089149
 r_5: + xp_130_0 + xp_119_2 + xp_104_1 + xp_99_0 + xp_88_1 + xp_82_2
 + xp_81_3 + xp_27_1 + xp_18_3 + xp_7_0 + xp_2_0 <= 36974.2913645353
 r_6: + xp_126_2 + xp_119_0 + xp_114_0 + xp_95_1 + xp_92_1 + xp_91_1
 + xp_83_1 + xp_83_0 + xp_82_1 + xp_81_0 + xp_79_1 + xp_70_0 + xp_68_1
 + xp_58_1 + xp_53_0 + xp_48_1 + xp_45_0 + xp_34_0 + xp_32_1 + xp_30_2
 + xp_30_1 + xp_18_1 <= 38895.0789229341
 r_7: + xp_119_1 + xp_112_1 + xp_111_1 + xp_104_0 + xp_88_0 + xp_82_0
 + xp_81_2 + xp_81_1 + xp_78_1 + xp_53_1 + xp_50_1 + xp_45_2 + xp_45_1
 + xp_44_0 + xp_27_0 + xp_18_2 + xp_18_0 + xp_4_1 + xp_3_1
 <= 35484.0162089149
 r_8: + xp_131_2 + xp_131_0 + xp_127_0 + xp_126_1 + xp_120_1 + xp_120_0
 + xp_118_0 + xp_103_0 + xp_94_2 + xp_94_1 + xp_90_1 + xp_77_2 + xp_77_1
 + xp_71_0 + xp_61_1 + xp_55_0 + xp_42_2 + xp_42_1 + xp_38_1 + xp_32_0
 + xp_24_3 + xp_24_1 + xp_24_0 + xp_12_1 + xp_1_1 <= 38762.5113739763
 r_9: + xp_131_1 + xp_127_1 + xp_123_1 + xp_122_0 + xp_108_1 + xp_78_3
 + xp_77_0 + xp_67_1 + xp_57_1 + xp_42_0 + xp_33_0 + xp_32_1 + xp_24_2
 <= 38762.5113739763
 r_10: + xp_112_1 + xp_111_1 + xp_106_0 + xp_99_0 + xp_98_0 + xp_94_1
 + xp_88_1 + xp_88_0 + xp_85_0 + xp_78_1 + xp_50_1 + xp_26_0 + xp_24_0
 + xp_8_0 + xp_7_0 + xp_4_1 + xp_3_1 + xp_2_0 <= 38895.0789229341
 r_11: + xp_119_0 + xp_112_0 + xp_111_0 + xp_95_1 + xp_91_1 + xp_82_1
 + xp_81_0 + xp_79_1 + xp_78_3 + xp_78_2 + xp_78_0 + xp_59_0 + xp_53_0
 + xp_50_0 + xp_49_0 + xp_45_0 + xp_34_0 + xp_18_1 + xp_4_0 + xp_3_0
 <= 36001.0454783063
 r_12: + xp_129_1 + xp_128_2 + xp_128_0 + xp_123_1 + xp_123_0 + xp_119_1
 + xp_117_0 + xp_112_1 + xp_111_1 + xp_108_2 + xp_101_0 + xp_95_0
 + xp_91_2 + xp_82_2 + xp_82_0 + xp_81_1 + xp_80_1 + xp_79_2 + xp_78_1
 + xp_78_0 + xp_73_0 + xp_63_1 + xp_60_1 + xp_50_1 + xp_46_0 + xp_45_1
 + xp_44_0 + xp_40_2 + xp_40_0 + xp_18_3 + xp_18_2 + xp_18_0 + xp_17_1
 + xp_15_0 + xp_14_0 + xp_13_2 + xp_13_0 + xp_9_0 + xp_4_1
 <= 35616.5025785279
 r_13: + xp_129_0 + xp_128_1 + xp_120_1 + xp_119_2 + xp_109_1 + xp_100_0
 + xp_96_1 + xp_95_2 + xp_91_0 + xp_90_0 + xp_81_3 + xp_81_2 + xp_80_0
 + xp_79_0 + xp_68_0 + xp_63_0 + xp_60_0 + xp_53_1 + xp_45_2 + xp_40_1
 + xp_34_1 + xp_31_0 + xp_30_0 + xp_17_0 + xp_13_1 + xp_9_1
 <= 36001.0454783063
 r_14: + xp_131_2 + xp_131_1 + xp_131_0 + xp_126_2 + xp_125_1 + xp_125_0
 + xp_124_1 + xp_124_0 + xp_115_1 + xp_115_0 + xp_106_1 + xp_99_2
 + xp_99_1 + xp_98_2 + xp_98_1 + xp_94_2 + xp_94_0 + xp_92_1 + xp_86_1
 + xp_86_0 + xp_85_3 + xp_85_2 + xp_85_1 + xp_77_2 + xp_77_1 + xp_77_0
 + xp_68_1 + xp_65_1 + xp_65_0 + xp_58_1 + xp_56_0 + xp_51_0 + xp_48_1
 + xp_41_1 + xp_41_0 + xp_38_1 + xp_38_0 + xp_35_0 + xp_32_1 + xp_30_2
 + xp_30_1 + xp_26_2 + xp_26_1 + xp_24_3 + xp_24_2 + xp_24_1 + xp_20_0
 + xp_19_1 + xp_19_0 + xp_12_1 + xp_12_0 + xp_2_1 + xp_0_0
 <= 35484.0162089149
 r_15: + xp_131_1 + xp_131_0 + xp_126_2 + xp_125_0 + xp_124_1 + xp_124_0
 + xp_120_1 + xp_116_0 + xp_115_0 + xp_109_1 + xp_99_1 + xp_98_1
 + xp_96_1 + xp_94_2 + xp_94_0 + xp_92_1 + xp_90_0 + xp_89_0 + xp_86_0
 + xp_85_3 + xp_85_1 + xp_77_2 + xp_77_0 + xp_68_1 + xp_68_0 + xp_65_0
 + xp_58_1 + xp_51_0 + xp_48_1 + xp_42_1 + xp_42_0 + xp_38_0 + xp_36_0
 + xp_32_1 + xp_28_0 + xp_26_2 + xp_26_1 + xp_24_3 + xp_24_2 + xp_24_1
 + xp_19_1 + xp_12_0 + xp_11_1 + xp_0_0 <= 35616.5025785279
 r_16: + xp_128_0 + xp_123_0 + xp_108_2 + xp_108_0 + xp_78_2 + xp_78_1
 + xp_78_0 + xp_73_0 + xp_67_0 + xp_57_0 + xp_46_0 + xp_44_0 + xp_40_0
 + xp_22_0 + xp_18_0 + xp_13_0 + xp_6_0 <= 35616.5025785279
 r_17: + xp_129_1 + xp_128_2 + xp_126_0 + xp_123_1 + xp_119_1 + xp_112_1
 + xp_111_1 + xp_109_0 + xp_97_0 + xp_95_0 + xp_91_2 + xp_90_2 + xp_81_1
 + xp_80_1 + xp_79_2 + xp_63_1 + xp_62_0 + xp_61_0 + xp_60_1 + xp_47_0
 + xp_45_1 + xp_40_2 + xp_22_1 + xp_18_3 + xp_18_2 + xp_17_1 + xp_13_2
 + xp_9_0 + xp_4_1 + xp_1_0 <= 34674.9747389694
 r_18: + xp_126_1 + xp_126_0 + xp_106_0 + xp_99_0 + xp_98_0 + xp_94_1
 + xp_92_0 + xp_85_0 + xp_68_0 + xp_58_0 + xp_48_0 + xp_32_0 + xp_30_0
 + xp_26_0 + xp_24_0 + xp_5_0 + xp_2_0 <= 36001.0454783063
 r_19: + xp_131_2 + xp_125_1 + xp_116_1 + xp_115_1 + xp_110_0 + xp_108_2
 + xp_106_1 + xp_99_2 + xp_98_2 + xp_86_1 + xp_85_2 + xp_78_0 + xp_77_1
 + xp_65_1 + xp_56_0 + xp_42_2 + xp_38_1 + xp_28_1 + xp_19_0 + xp_14_0
 + xp_12_1 + xp_11_0 + xp_3_0 + xp_2_1 <= 36001.0454783063
 r_20: + xp_129_0 + xp_128_1 + xp_119_2 + xp_119_0 + xp_112_0 + xp_111_0
 + xp_108_1 + xp_108_0 + xp_107_0 + xp_95_2 + xp_95_1 + xp_91_1
 + xp_91_0 + xp_82_1 + xp_81_3 + xp_81_2 + xp_81_0 + xp_80_0 + xp_79_1
 + xp_79_0 + xp_78_3 + xp_78_2 + xp_69_0 + xp_64_0 + xp_63_0 + xp_60_0
 + xp_50_0 + xp_49_0 + xp_45_2 + xp_45_0 + xp_40_1 + xp_18_1 + xp_17_0
 + xp_14_1 + xp_13_1 + xp_10_0 + xp_9_1 + xp_4_0 <= 34674.9747389694
 r_21: + xp_124_1 + xp_113_0 + xp_105_1 + xp_99_2 + xp_99_1 + xp_86_1
 + xp_86_0 + xp_85_3 + xp_83_1 + xp_77_2 + xp_77_1 + xp_77_0 + xp_65_1
 + xp_65_0 + xp_58_1 + xp_48_1 + xp_41_1 + xp_38_1 + xp_38_0 + xp_30_2
 + xp_26_2 + xp_24_3 + xp_20_0 + xp_2_1 + xp_0_0 <= 35484.0162089149
 r_22: + xp_126_2 + xp_124_0 + xp_106_1 + xp_105_0 + xp_98_2 + xp_98_1
 + xp_94_2 + xp_94_0 + xp_92_1 + xp_85_2 + xp_85_1 + xp_83_0 + xp_68_1
 + xp_41_0 + xp_32_1 + xp_30_1 + xp_26_1 + xp_24_2 + xp_24_1
 <= 35484.0162089149
 r_23: + xp_128_2 + xp_128_1 + xp_128_0 + xp_119_2 + xp_119_1 + xp_117_0
 + xp_112_1 + xp_111_1 + xp_104_1 + xp_104_0 + xp_100_0 + xp_95_2
 + xp_95_0 + xp_91_2 + xp_91_0 + xp_84_0 + xp_82_2 + xp_82_0 + xp_81_3
 + xp_81_2 + xp_81_1 + xp_80_1 + xp_80_0 + xp_79_2 + xp_79_0 + xp_78_1
 + xp_73_0 + xp_60_1 + xp_60_0 + xp_53_1 + xp_50_1 + xp_46_0 + xp_45_2
 + xp_45_1 + xp_44_0 + xp_40_2 + xp_40_1 + xp_40_0 + xp_34_1 + xp_21_0
 + xp_18_3 + xp_18_2 + xp_18_0 + xp_15_0 + xp_9_1 + xp_9_0 + xp_4_1
 + xp_3_1 <= 35484.0162089149
 r_24: + xp_128_0 + xp_126_1 + xp_103_0 + xp_94_2 + xp_94_1 + xp_90_1
 + xp_61_1 + xp_40_0 + xp_39_0 + xp_38_1 + xp_22_0 + xp_18_0 + xp_13_0
 + xp_12_1 + xp_1_1 <= 38762.5113739763
 r_25: + xp_131_1 + xp_127_1 + xp_126_2 + xp_126_0 + xp_94_0 + xp_90_2
 + xp_90_0 + xp_89_0 + xp_77_0 + xp_74_0 + xp_61_0 + xp_42_0 + xp_38_0
 + xp_32_1 + xp_24_2 + xp_12_0 + xp_1_0 <= 35616.5025785279
 r_26: + xp_128_2 + xp_128_1 + xp_123_1 + xp_121_0 + xp_112_1 + xp_112_0
 + xp_108_1 + xp_107_0 + xp_81_3 + xp_81_2 + xp_81_1 + xp_81_0 + xp_79_2
 + xp_79_1 + xp_79_0 + xp_78_3 + xp_67_1 + xp_64_0 + xp_60_1 + xp_60_0
 + xp_57_1 + xp_47_0 + xp_40_2 + xp_40_1 + xp_37_0 + xp_29_0 + xp_25_0
 + xp_22_1 + xp_18_3 + xp_18_2 + xp_18_1 + xp_17_1 + xp_17_0 + xp_13_2
 + xp_13_1 + xp_4_1 + xp_4_0 <= 34674.9747389694
 r_27: + xp_131_0 + xp_127_0 + xp_125_0 + xp_120_1 + xp_116_0 + xp_115_0
 + xp_108_0 + xp_99_1 + xp_98_1 + xp_96_1 + xp_94_2 + xp_92_1 + xp_86_0
 + xp_85_3 + xp_85_1 + xp_82_1 + xp_78_2 + xp_77_2 + xp_72_0 + xp_67_0
 + xp_65_0 + xp_58_1 + xp_57_0 + xp_52_0 + xp_50_0 + xp_48_1 + xp_42_1
 + xp_28_0 + xp_26_2 + xp_26_1 + xp_24_3 + xp_24_1 + xp_23_0 + xp_19_1
 + xp_14_1 + xp_11_1 <= 34674.9747389694
 r_28: + xp_131_2 + xp_126_1 + xp_126_0 + xp_125_1 + xp_120_0 + xp_116_1
 + xp_115_1 + xp_109_0 + xp_99_2 + xp_99_0 + xp_98_2 + xp_98_0 + xp_96_0
 + xp_94_1 + xp_92_0 + xp_90_2 + xp_90_1 + xp_86_1 + xp_85_2 + xp_85_0
 + xp_77_1 + xp_75_0 + xp_65_1 + xp_58_0 + xp_54_0 + xp_48_0 + xp_42_2
 + xp_38_1 + xp_32_0 + xp_28_1 + xp_26_0 + xp_24_0 + xp_19_0 + xp_12_1
 + xp_11_0 <= 34674.9747389694
 r_29: + xp_129_1 + xp_129_0 + xp_95_2 + xp_95_1 + xp_95_0 + xp_93_0
 + xp_87_0 + xp_71_0 + xp_62_0 + xp_49_0 + xp_45_2 + xp_45_1 + xp_45_0
 + xp_10_0 + xp_9_1 + xp_9_0 + xp_1_1 + xp_1_0 <= 34674.9747389694
 r_30: + xp_125_1 + xp_125_0 + xp_121_0 + xp_102_0 + xp_99_2 + xp_99_1
 + xp_99_0 + xp_96_1 + xp_96_0 + xp_92_1 + xp_92_0 + xp_57_1 + xp_57_0
 + xp_37_0 + xp_26_2 + xp_26_1 + xp_26_0 + xp_23_0 + xp_11_1 + xp_11_0
 <= 34674.9747389694

Bounds
 0 <= xp_0_0 <= 219.636112655534
 0 <= xp_1_0 <= 84.9709541977415
 0 <= xp_1_1 <= 84.9709541977415
 0 <= xp_2_0 <= 17.8428778670348
 0 <= xp_2_1 <= 89.2143893351738
 0 <= xp_3_0 <= 56.5655016392185
 0 <= xp_3_1 <= 113.131003278437
 0 <= xp_4_0 <= 611.923797107562
 0 <= xp_4_1 <= 122.384759421512
 0 <= xp_5_0 <= 1008.42424126229
 0 <= xp_6_0 <= 1667.94608792346
 0 <= xp_7_0 <= 594.121819820165
 0 <= xp_8_0 <= 1405.30301577868
 0 <= xp_9_0 <= 67.1587517654352
 0 <= xp_9_1 <= 33.5793758827176
 0 <= xp_10_0 <= 51.0439233881018
 0 <= xp_11_0 <= 19.3255238789087
 0 <= xp_11_1 <= 19.3255238789087
 0 <= xp_12_0 <= 1603.4560989794
 0 <= xp_12_1 <= 320.69121979588
 0 <= xp_13_0 <= 78.1814579778498
 0 <= xp_13_1 <= 39.0907289889249
 0 <= xp_13_2 <= 117.272186966775
 0 <= xp_14_0 <= 68.2426171258396
 0 <= xp_14_1 <= 136.485234251679
 0 <= xp_15_0 <= 472.033589601027
 0 <= xp_16_0 <= 2458.26798826665
 0 <= xp_17_0 <= 138.254184321018
 0 <= xp_17_1 <= 138.254184321018
 0 <= xp_18_0 <= 111.392728643826
 0 <= xp_18_1 <= 55.6963643219131
 0 <= xp_18_2 <= 111.392728643826
 0 <= xp_18_3 <= 55.6963643219131
 0 <= xp_19_0 <= 492.708832607987
 0 <= xp_19_1 <= 492.708832607987
 0 <= xp_20_0 <= 119.388791963036
 0 <= xp_21_0 <= 255.526371287793
 0 <= xp_22_0 <= 382.318168165289
 0 <= xp_22_1 <= 764.636336330579
 0 <= xp_23_0 <= 48.4058360014571
 0 <= xp_24_0 <= 158.561322111237
 0 <= xp_24_1 <= 52.8537740370789
 0 <= xp_24_2 <= 52.8537740370789
 0 <= xp_24_3 <= 52.8537740370789
 0 <= xp_25_0 <= 538.844686439541
 0 <= xp_26_0 <= 9.52983505563118
 0 <= xp_26_1 <= 2.38245876390779
 0 <= xp_26_2 <= 2.38245876390779
 0 <= xp_27_0 <= 262.172715478952
 0 <= xp_27_1 <= 52.4345430957904
 0 <= xp_28_0 <= 414.322871731948
 0 <= xp_28_1 <= 207.161435865974
 0 <= xp_29_0 <= 2279.18480032209
 0 <= xp_30_0 <= 56.9131565661407
 0 <= xp_30_1 <= 85.369734849211
 0 <= xp_30_2 <= 28.4565782830703
 0 <= xp_31_0 <= 177.488065338676
 0 <= xp_32_0 <= 1746.81263061025
 0 <= xp_32_1 <= 349.36252612205
 0 <= xp_33_0 <= 7504.86780804846
 0 <= xp_34_0 <= 158.571547256146
 0 <= xp_34_1 <= 317.143094512292
 0 <= xp_35_0 <= 243.072144788052
 0 <= xp_36_0 <= 296.999559040626
 0 <= xp_37_0 <= 339.761115052052
 0 <= xp_38_0 <= 259.820932149773
 0 <= xp_38_1 <= 51.9641864299546
 0 <= xp_39_0 <= 1465.18146436857
 0 <= xp_40_0 <= 263.58378547646
 0 <= xp_40_1 <= 131.79189273823
 0 <= xp_40_2 <= 395.37567821469
 0 <= xp_41_0 <= 49.6124031007752
 0 <= xp_41_1 <= 24.8062015503876
 0 <= xp_42_0 <= 211.476447017773
 0 <= xp_42_1 <= 70.4921490059242
 0 <= xp_42_2 <= 140.984298011848
 0 <= xp_43_0 <= 458.229643973236
 0 <= xp_44_0 <= 427.063402289154
 0 <= xp_45_0 <= 19.8163308345635
 0 <= xp_45_1 <= 13.2108872230424
 0 <= xp_45_2 <= 6.60544361152118
 0 <= xp_46_0 <= 1495.18203953297
 0 <= xp_47_0 <= 818.543300293334
 0 <= xp_48_0 <= 2255.61584130575
 0 <= xp_48_1 <= 451.12316826115
 0 <= xp_49_0 <= 82.0261124638126
 0 <= xp_50_0 <= 486.962301168862
 0 <= xp_50_1 <= 243.481150584431
 0 <= xp_51_0 <= 660.810214919764
 0 <= xp_52_0 <= 616.882992388657
 0 <= xp_53_0 <= 88.4372783220537
 0 <= xp_53_1 <= 88.4372783220537
 0 <= xp_54_0 <= 3439.75919783738
 0 <= xp_55_0 <= 1103.76349239824
 0 <= xp_56_0 <= 89.2041641902644
 0 <= xp_57_0 <= 127.937013107358
 0 <= xp_57_1 <= 63.9685065536788
 0 <= xp_58_0 <= 3528.49300536181
 0 <= xp_58_1 <= 705.698601072362
 0 <= xp_59_0 <= 9913.13483770778
 0 <= xp_60_0 <= 420.866964474012
 0 <= xp_60_1 <= 210.433482237006
 0 <= xp_61_0 <= 1126.92344561821
 0 <= xp_61_1 <= 1126.92344561821
 0 <= xp_62_0 <= 122.210931958051
 0 <= xp_63_0 <= 102.302574819302
 0 <= xp_63_1 <= 20.4605149638605
 0 <= xp_64_0 <= 926.091374451197
 0 <= xp_65_0 <= 405.426995660704
 0 <= xp_65_1 <= 81.0853991321408
 0 <= xp_66_0 <= 1564.63122375812
 0 <= xp_67_0 <= 251.211360135994
 0 <= xp_67_1 <= 125.605680067997
 0 <= xp_68_0 <= 457.391182090659
 0 <= xp_68_1 <= 914.782364181317
 0 <= xp_69_0 <= 1600.58283325984
 0 <= xp_70_0 <= 588.293487221764
 0 <= xp_71_0 <= 66.0135355355739
 0 <= xp_72_0 <= 557.924806840622
 0 <= xp_73_0 <= 859.648382829425
 0 <= xp_74_0 <= 887.808431910121
 0 <= xp_75_0 <= 1642.91493318507
 0 <= xp_76_0 <= 1603.89578021051
 0 <= xp_77_0 <= 355.262434734817
 0 <= xp_77_1 <= 88.8156086837043
 0 <= xp_77_2 <= 88.8156086837043
 0 <= xp_78_0 <= 4345.3696070349
 0 <= xp_78_1 <= 13036.1088211047
 0 <= xp_78_2 <= 4345.3696070349
 0 <= xp_78_3 <= 4345.3696070349
 0 <= xp_79_0 <= 496.267183036484
 0 <= xp_79_1 <= 165.422394345495
 0 <= xp_79_2 <= 330.84478869099
 0 <= xp_80_0 <= 140.043584680177
 0 <= xp_80_1 <= 70.0217923400883
 0 <= xp_81_0 <= 81.0240482626839
 0 <= xp_81_1 <= 81.0240482626839
 0 <= xp_81_2 <= 40.512024131342
 0 <= xp_81_3 <= 40.512024131342
 0 <= xp_82_0 <= 102.394601123488
 0 <= xp_82_1 <= 34.1315337078293
 0 <= xp_82_2 <= 68.2630674156585
 0 <= xp_83_0 <= 391.214044236533
 0 <= xp_83_1 <= 78.2428088473066
 0 <= xp_84_0 <= 829.279702448283
 0 <= xp_85_0 <= 63.4674744531145
 0 <= xp_85_1 <= 190.402423359343
 0 <= xp_85_2 <= 63.4674744531145
 0 <= xp_85_3 <= 63.4674744531145
 0 <= xp_86_0 <= 133.131386721371
 0 <= xp_86_1 <= 26.6262773442742
 0 <= xp_87_0 <= 131.658965854407
 0 <= xp_88_0 <= 330.221054851512
 0 <= xp_88_1 <= 66.0442109703023
 0 <= xp_89_0 <= 2069.61023025748
 0 <= xp_90_0 <= 13483.8167909661
 0 <= xp_90_1 <= 3370.95419774152
 0 <= xp_90_2 <= 3370.95419774152
 0 <= xp_91_0 <= 1268.09179623842
 0 <= xp_91_1 <= 422.697265412808
 0 <= xp_91_2 <= 845.394530825616
 0 <= xp_92_0 <= 51.9437361401356
 0 <= xp_92_1 <= 10.3887472280271
 0 <= xp_93_0 <= 121.597423263483
 0 <= xp_94_0 <= 147.323887855723
 0 <= xp_94_1 <= 36.8309719639308
 0 <= xp_94_2 <= 36.8309719639308
 0 <= xp_95_0 <= 28.5895051668935
 0 <= xp_95_1 <= 9.52983505563118
 0 <= xp_95_2 <= 19.0596701112624
 0 <= xp_96_0 <= 89.6745208561002
 0 <= xp_96_1 <= 17.93490417122
 0 <= xp_97_0 <= 491.788569566134
 0 <= xp_98_0 <= 44.4589300663995
 0 <= xp_98_1 <= 66.6883950995993
 0 <= xp_98_2 <= 22.2294650331998
 0 <= xp_99_0 <= 2.5460610824594
 0 <= xp_99_1 <= 7.63818324737821
 0 <= xp_99_2 <= 5.0921221649188
 0 <= xp_100_0 <= 469.272800475469
 0 <= xp_101_0 <= 233.133303936042
 0 <= xp_102_0 <= 69.9399911808125
 0 <= xp_103_0 <= 1343.33863762725
 0 <= xp_104_0 <= 102.558203442039
 0 <= xp_104_1 <= 20.5116406884079
 0 <= xp_105_0 <= 1127.32222626968
 0 <= xp_105_1 <= 225.464445253935
 0 <= xp_106_0 <= 12.8836825859391
 0 <= xp_106_1 <= 25.7673651718783
 0 <= xp_107_0 <= 419.639947084875
 0 <= xp_108_0 <= 132.037296216057
 0 <= xp_108_1 <= 528.149184864229
 0 <= xp_108_2 <= 132.037296216057
 0 <= xp_109_0 <= 601.320321836436
 0 <= xp_109_1 <= 300.660160918218
 0 <= xp_110_0 <= 124.296861519584
 0 <= xp_111_0 <= 2274.27673076554
 0 <= xp_111_1 <= 454.855346153109
 0 <= xp_112_0 <= 3639.99821059964
 0 <= xp_112_1 <= 727.999642119928
 0 <= xp_113_0 <= 396.940125385839
 0 <= xp_114_0 <= 2237.34350735252
 0 <= xp_115_0 <= 137.425947583351
 0 <= xp_115_1 <= 68.7129737916754
 0 <= xp_116_0 <= 99.3475079404641
 0 <= xp_116_1 <= 49.673753970232
 0 <= xp_117_0 <= 1813.22494679729
 0 <= xp_118_0 <= 2943.61471653981
 0 <= xp_119_0 <= 19.5300267770982
 0 <= xp_119_1 <= 29.2950401656473
 0 <= xp_119_2 <= 9.76501338854911
 0 <= xp_120_0 <= 1687.04665861436
 0 <= xp_120_1 <= 337.409331722873
 0 <= xp_121_0 <= 70.4921490059242
 0 <= xp_122_0 <= 2122.55603059875
 0 <= xp_123_0 <= 399.547537337756
 0 <= xp_123_1 <= 79.9095074675511
 0 <= xp_124_0 <= 107.057267202209
 0 <= xp_124_1 <= 21.4114534404417
 0 <= xp_125_0 <= 16.9737405497293
 0 <= xp_125_1 <= 8.48687027486467
 0 <= xp_126_0 <= 3946.81390875336
 0 <= xp_126_1 <= 7893.62781750672
 0 <= xp_126_2 <= 11840.4417262601
 0 <= xp_127_0 <= 448.525981454143
 0 <= xp_127_1 <= 89.7051962908287
 0 <= xp_128_0 <= 63.1607201058302
 0 <= xp_128_1 <= 126.32144021166
 0 <= xp_128_2 <= 189.482160317491
 0 <= xp_129_0 <= 22.8531988726778
 0 <= xp_129_1 <= 22.8531988726778
 0 <= xp_130_0 <= 376.632987595621
 0 <= xp_131_0 <= 238.798034215891
 0 <= xp_131_1 <= 119.399017107946
 0 <= xp_131_2 <= 358.197051323837

End
